language Essence 1.3

letting class be function(1 --> 3, 2 --> 3, 3 --> 2, 4 --> 3, 5 --> 1, 6 --> 3, 7 --> 3, 8 --> 1)
letting deck_length be 54
letting deck_width be 86
letting length be function(1 --> 22, 2 --> 4, 3 --> 41, 4 --> 46, 5 --> 32, 6 --> 28, 7 --> 54, 8 --> 2)
letting n_classes be 3
letting n_containers be 8
letting separation be function({1, 2} --> 47, {2, 3} --> 34)
letting width be function(1 --> 1, 2 --> 1, 3 --> 3, 4 --> 10, 5 --> 1, 6 --> 1, 7 --> 58, 8 --> 2)
